12,5	0,0	18,3	12,6	0,0	0,0	0,0	0,0	0,0	11,2
15,8	15,8	0,0	12,4	5,6	0,0	0,0	7,3	0,0	0,0
0,0	0,0	6,5	0,0	5,6	17,9	0,0	0,0	15,1	0,0
12,7	0,0	5,7	0,0	0,0	0,0	6,1	0,0	0,0	0,0
0,0	19,8	0,0	18,6	15,9	0,0	0,0	7,2	0,0	0,0
0,0	19,5	18,3	0,0	7,4	18,4	0,0	0,0	19,8	0,0
0,0	15,8	0,0	11,5	0,0	0,0	5,3	0,0	0,0	8,0
18,3	0,0	13,0	0,0	0,0	0,0	0,0	0,0	0,0	8,5
0,0	19,7	0,0	14,1	19,2	0,0	0,0	19,0	0,0	0,0
0,0	0,0	18,5	0,0	0,0	6,9	11,0	0,0	0,0	10,5
									
3,5	3,0	4,5	2,7	4,9	3,0	3,9	3,7	4,8	4,2
